c Instancia generada aleatoriamente
p edge 30 103
e 1 3
e 1 9
e 1 10
e 1 11
e 1 14
e 1 24
e 1 30
e 2 4
e 2 6
e 2 7
e 2 11
e 2 18
e 2 19
e 2 26
e 3 9
e 3 12
e 3 15
e 3 19
e 3 27
e 3 30
e 4 6
e 4 7
e 4 14
e 4 16
e 4 21
e 4 25
e 4 27
e 4 29
e 5 6
e 5 8
e 5 15
e 5 17
e 5 22
e 5 24
e 5 29
e 5 30
e 6 7
e 6 11
e 6 15
e 6 16
e 6 19
e 6 20
e 6 21
e 6 22
e 7 9
e 7 11
e 7 18
e 7 22
e 7 23
e 7 25
e 7 29
e 8 12
e 8 15
e 8 24
e 8 26
e 9 22
e 9 24
e 10 23
e 10 24
e 10 25
e 10 29
e 10 30
e 11 12
e 11 19
e 11 21
e 11 23
e 12 15
e 12 18
e 12 19
e 12 25
e 12 26
e 12 28
e 13 20
e 13 21
e 13 25
e 14 19
e 14 23
e 14 30
e 15 20
e 15 22
e 15 23
e 15 28
e 15 29
e 17 18
e 17 22
e 17 27
e 18 20
e 18 21
e 18 24
e 18 29
e 18 30
e 19 26
e 19 28
e 20 21
e 20 23
e 20 26
e 20 27
e 21 24
e 21 27
e 22 28
e 23 27
e 24 25
e 25 30
